
Gurobi 9.1.2 (win64, Java) logging started Sat Nov  6 21:17:12 2021

Academic license - for non-commercial use only - expires 2022-10-30
Gurobi Optimizer version 9.1.2 build v9.1.2rc0 (win64)
Thread count: 6 physical cores, 12 logical processors, using up to 12 threads
Optimize a model with 60 rows, 800 columns and 1600 nonzeros
Model fingerprint: 0xd729ce63
Variable types: 0 continuous, 800 integer (800 binary)
Coefficient statistics:
  Matrix range     [1e+00, 1e+03]
  Objective range  [4e+02, 1e+03]
  Bounds range     [1e+00, 1e+00]
  RHS range        [1e+00, 9e+02]
Found heuristic solution: objective 16317.000000
Presolve removed 15 rows and 449 columns
Presolve time: 0.01s
Presolved: 45 rows, 351 columns, 699 nonzeros
Variable types: 0 continuous, 351 integer (351 binary)
Presolved: 45 rows, 351 columns, 699 nonzeros


Root relaxation: objective 2.133335e+04, 222 iterations, 0.00 seconds

    Nodes    |    Current Node    |     Objective Bounds      |     Work
 Expl Unexpl |  Obj  Depth IntInf | Incumbent    BestBd   Gap | It/Node Time

     0     0 21333.3458    0   16 16317.0000 21333.3458  30.7%     -    0s
H    0     0                    19939.000000 21333.3458  6.99%     -    0s
H    0     0                    20359.000000 21333.3458  4.79%     -    0s
H    0     0                    20386.000000 21333.3458  4.65%     -    0s
H    0     0                    20778.000000 21333.3458  2.67%     -    0s
     0     0 20945.3956    0   30 20778.0000 20945.3956  0.81%     -    0s
     0     0 20919.5501    0   37 20778.0000 20919.5501  0.68%     -    0s
     0     0 20910.5003    0   45 20778.0000 20910.5003  0.64%     -    0s
     0     0 20909.7210    0   47 20778.0000 20909.7210  0.63%     -    0s
     0     0 20904.6292    0   46 20778.0000 20904.6292  0.61%     -    0s
H    0     0                    20807.000000 20904.6292  0.47%     -    0s
     0     0 20903.7919    0   44 20807.0000 20903.7919  0.47%     -    0s
     0     0 20903.7919    0   42 20807.0000 20903.7919  0.47%     -    0s
     0     0 20901.1593    0   45 20807.0000 20901.1593  0.45%     -    0s
     0     0 20901.1593    0   45 20807.0000 20901.1593  0.45%     -    1s
H    0     0                    20846.000000 20901.1593  0.26%     -    1s
     0     2 20901.1593    0   40 20846.0000 20901.1593  0.26%     -    1s
H   35    35                    20864.000000 20897.5253  0.16%  22.5    1s
H  113    89                    20865.000331 20897.5253  0.16%  18.8    2s
*  153    86              15    20869.000331 20897.5253  0.14%  18.1    2s
H  221   112                    20870.000000 20894.1274  0.12%  19.2    2s
H  391   135                    20878.000000 20890.5466  0.06%  18.7    2s

Cutting planes:
  Gomory: 5
  Cover: 31
  Clique: 3
  MIR: 32
  StrongCG: 20

Explored 737 nodes (12803 simplex iterations) in 2.97 seconds
Thread count was 12 (of 12 available processors)

Solution count 10: 20878 20870 20869 ... 20359

Optimal solution found (tolerance 1.00e-04)
Best objective 2.087800000000e+04, best bound 2.087800000000e+04, gap 0.0000%
